(set-logic QF_S)
(declare-fun var_0xINPUT_81215 () String)
(assert (and (not (= var_0xINPUT_81215 "AA1ND6MEXd")) (= (len var_0xINPUT_81215) 0) (not (= var_0xINPUT_81215 "Example:")) (not (= var_0xINPUT_81215 "AA1ND6MEXd"))))
(check-sat var_0xINPUT_81215)